% File represents an instance of a Composite Structure problem to be solved by a CP framework
% Created on 2025-03-26 10:41:19.211
T = 50;
n = 9;
m = 12;
edges = [(1, 2),
(4, 5),
(7, 8),
(3, 2),
(6, 5),
(8, 9),
(4, 1),
(7, 4),
(5, 2),
(8, 5),
(6, 3),
(6, 9)];
counts = [|18, 2, 18, 4,
|18, 2, 18, 2,
|18, 4, 18, 2,
|18, 4, 18, 8,
|18, 4, 18, 2,
|18, 4, 18, 6,
|18, 4, 18, 10,
|18, 4, 18, 8,
|18, 2, 18, 6|];
